
  32    1
  10

   0   0  12 2 3 4 5 6 7 8 10 11 14 17 18 
   3   2   5 24 20 19 12 9 
   9   9   4 26 24 20 9 
   3   6   7 30 29 28 25 24 22 15 
   3   9   6 29 28 26 24 23 13 
   4   5   7 30 27 25 24 23 22 19 
   6   7   6 27 25 24 23 22 19 
   1   6   5 31 26 24 23 16 
   6   8   4 30 28 23 13 
   4   4   4 28 24 21 15 
   9   2   5 28 27 24 23 22 
   2   5   3 28 25 15 
   2   7   3 27 25 22 
   9   8   3 29 27 24 
   5   3   2 26 23 
   2   7   2 25 22 
   5   5   2 30 22 
   8   9   2 24 23 
   8   6   1 26 
   1   3   1 29 
   9   7   1 22 
   7  10   1 32
  10   5   1 32
   2   5   1 32
   2   6   1 32
   2   8   1 32
   3   6   1 32
   2   5   1 32
   2   6   1 32
  10   7   1 32
   2   4   1 32
   0   0   0 
